feasible solution found by trivial heuristic after 2.5 seconds, objective value -1.339947e+08
presolving:
(round 1, fast)       405763 del vars, 402751 del conss, 0 add conss, 8420 chg bounds, 168 chg sides, 0 chg coeffs, 1 upgd conss, 0 impls, 5934 clqs
(round 2, fast)       405881 del vars, 402751 del conss, 0 add conss, 8420 chg bounds, 168 chg sides, 0 chg coeffs, 1 upgd conss, 0 impls, 5934 clqs
   (9.9s) running MILP presolver
   (9.9s) MILP presolver found nothing
(round 3, exhaustive) 405881 del vars, 402751 del conss, 0 add conss, 8420 chg bounds, 168 chg sides, 0 chg coeffs, 11506 upgd conss, 0 impls, 5934 clqs
(round 4, medium)     408671 del vars, 405685 del conss, 0 add conss, 8420 chg bounds, 168 chg sides, 2790 chg coeffs, 11506 upgd conss, 0 impls, 8575 clqs
   (10.4s) running MILP presolver
   (10.4s) MILP presolver (2 rounds): 0 aggregations, 0 fixings, 0 bound changes
   (10.5s) probing: 51/336 (15.2%) - 0 fixings, 0 aggregations, 0 implications, 0 bound changes
   (10.5s) probing aborted: 50/50 successive totally useless probings
   (10.6s) symmetry computation started: requiring (bin +, int -, cont +), (fixed: bin -, int +, cont -)
   (10.6s) no symmetry present
presolving (5 rounds: 5 fast, 3 medium, 2 exhaustive):
 408839 deleted vars, 408649 deleted constraints, 0 added constraints, 8420 tightened bounds, 0 added holes, 168 changed sides, 2790 changed coefficients
 0 implications, 5603 cliques
presolved problem has 168 variables (168 bin, 0 int, 0 impl, 0 cont) and 5608 constraints
   2962 constraints of type <setppc>
   2646 constraints of type <logicor>
Presolving Time: 10.52

 time | node  | left  |LP iter|LP it/n|mem/heur|mdpt |vars |cons |rows |cuts |sepa|confs|strbr|  dualbound   | primalbound  |  gap   | compl. 
t12.3s|     1 |     0 |     0 |     - | trivial|   0 | 168 |5608 |   0 |   0 |  0 |   0 |   0 |-1.311306e+08 |-1.332811e+08 |   1.64%| unknown
p12.4s|     1 |     0 |     0 |     - |  clique|   0 | 168 |5608 |5608 |   0 |  0 |   0 |   0 |-1.311306e+08 |-1.330133e+08 |   1.44%| unknown
 12.9s|     1 |     0 |   987 |     - |  1240M |   0 | 168 |5608 |5608 |   0 |  0 |   0 |   0 |-1.327419e+08 |-1.330133e+08 |   0.20%| unknown
 13.0s|     1 |     0 |  1121 |     - |  1242M |   0 | 168 |5608 |5609 |   1 |  1 |   0 |   0 |-1.327435e+08 |-1.330133e+08 |   0.20%| unknown
 13.1s|     1 |     0 |  1271 |     - |  1242M |   0 | 168 |5608 |5610 |   2 |  2 |   0 |   0 |-1.327443e+08 |-1.330133e+08 |   0.20%| unknown
 13.3s|     1 |     0 |  1396 |     - |  1245M |   0 | 168 |5608 |5611 |   3 |  3 |   0 |   0 |-1.327448e+08 |-1.330133e+08 |   0.20%| unknown
 13.4s|     1 |     0 |  1484 |     - |  1246M |   0 | 168 |5608 |5612 |   4 |  4 |   0 |   0 |-1.327452e+08 |-1.330133e+08 |   0.20%| unknown
 13.6s|     1 |     0 |  1647 |     - |  1248M |   0 | 168 |5608 |5613 |   5 |  5 |   0 |   0 |-1.327456e+08 |-1.330133e+08 |   0.20%| unknown
 13.7s|     1 |     0 |  1749 |     - |  1250M |   0 | 168 |5608 |5614 |   6 |  6 |   0 |   0 |-1.327458e+08 |-1.330133e+08 |   0.20%| unknown
 13.9s|     1 |     0 |  1829 |     - |  1251M |   0 | 168 |5608 |5615 |   7 |  7 |   0 |   0 |-1.327459e+08 |-1.330133e+08 |   0.20%| unknown
 14.0s|     1 |     0 |  1919 |     - |  1252M |   0 | 168 |5608 |5616 |   8 |  8 |   0 |   0 |-1.327460e+08 |-1.330133e+08 |   0.20%| unknown
 14.2s|     1 |     0 |  2085 |     - |  1254M |   0 | 168 |5608 |5617 |   9 |  9 |   0 |   0 |-1.327461e+08 |-1.330133e+08 |   0.20%| unknown
 14.3s|     1 |     0 |  2242 |     - |  1255M |   0 | 168 |5608 |5619 |  11 | 10 |   0 |   0 |-1.327461e+08 |-1.330133e+08 |   0.20%| unknown
 14.5s|     1 |     0 |  2387 |     - |  1256M |   0 | 168 |5608 |5624 |  16 | 11 |   0 |   0 |-1.327463e+08 |-1.330133e+08 |   0.20%| unknown
 14.6s|     1 |     0 |  2433 |     - |  1257M |   0 | 168 |5608 |5626 |  18 | 12 |   0 |   0 |-1.327464e+08 |-1.330133e+08 |   0.20%| unknown
 time | node  | left  |LP iter|LP it/n|mem/heur|mdpt |vars |cons |rows |cuts |sepa|confs|strbr|  dualbound   | primalbound  |  gap   | compl. 
d14.8s|     1 |     0 |  3510 |     - |farkasdi|   0 | 168 |5608 |5626 |   0 | 14 |   0 |   0 |-1.327464e+08 |-1.329078e+08 |   0.12%| unknown
 14.8s|     1 |     0 |  3510 |     - |  1257M |   0 | 168 |5608 |5626 |  18 | 14 |   0 |   0 |-1.327464e+08 |-1.329078e+08 |   0.12%| unknown
 14.9s|     1 |     0 |  3535 |     - |  1257M |   0 | 168 |5608 |5627 |  19 | 15 |   0 |   0 |-1.327465e+08 |-1.329078e+08 |   0.12%| unknown
 15.0s|     1 |     0 |  3567 |     - |  1257M |   0 | 168 |5608 |5628 |  20 | 16 |   0 |   0 |-1.327465e+08 |-1.329078e+08 |   0.12%| unknown
 18.4s|     1 |     2 |  3567 |     - |  1257M |   0 | 168 |5608 |5628 |  20 | 16 |   0 |  23 |-1.327521e+08 |-1.329078e+08 |   0.12%| unknown
*22.3s|     5 |     4 |  4809 | 590.8 |strongbr|   4 | 168 |5608 |5623 |  20 |  1 |   0 | 118 |-1.327521e+08 |-1.329043e+08 |   0.11%| unknown
*22.7s|     6 |     3 |  4985 | 507.8 |    LP  |   4 | 168 |5608 |5623 |  20 |  4 |   0 | 151 |-1.327521e+08 |-1.329011e+08 |   0.11%|   4.42%
*29.6s|     9 |     4 |  6412 | 495.8 |strongbr|   4 | 168 |5609 |5623 |  20 |  2 |   1 | 219 |-1.327591e+08 |-1.328848e+08 |   0.09%|   7.99%
 45.3s|   100 |     7 | 18727 | 164.5 |  1263M |  15 | 168 |5650 |5623 |  61 |  1 |  45 | 426 |-1.327623e+08 |-1.328848e+08 |   0.09%|  38.09%
*45.5s|   105 |     6 | 19165 | 160.8 |    LP  |  15 | 168 |5650 |5624 |  63 |  1 |  45 | 426 |-1.327623e+08 |-1.328847e+08 |   0.09%|  38.29%
*45.5s|   109 |     6 | 19442 | 157.4 |    LP  |  15 | 168 |5650 |5624 |  63 |  1 |  45 | 426 |-1.327623e+08 |-1.328838e+08 |   0.09%|  40.27%
*45.6s|   110 |     5 | 19483 | 156.3 |    LP  |  15 | 168 |5649 |5624 |  63 |  1 |  45 | 426 |-1.327623e+08 |-1.328764e+08 |   0.09%|  40.34%
 49.9s|   200 |     5 | 29878 | 137.8 |  1267M |  17 | 168 |5654 |5633 | 113 |  3 |  50 | 439 |-1.327623e+08 |-1.328764e+08 |   0.09%|  54.49%
 56.3s|   300 |     7 | 43369 | 136.9 |  1270M |  19 | 168 |5657 |5626 | 146 |  0 |  53 | 461 |-1.327809e+08 |-1.328764e+08 |   0.07%|  68.37%
 62.3s|   400 |     9 | 55568 | 133.1 |  1272M |  19 | 168 |5667 |5636 | 187 |  0 |  63 | 493 |-1.327996e+08 |-1.328764e+08 |   0.06%|  71.84%
 time | node  | left  |LP iter|LP it/n|mem/heur|mdpt |vars |cons |rows |cuts |sepa|confs|strbr|  dualbound   | primalbound  |  gap   | compl. 
 66.6s|   500 |     7 | 65200 | 125.8 |  1272M |  23 | 168 |5679 |5637 | 187 |  0 |  75 | 529 |-1.328140e+08 |-1.328764e+08 |   0.05%|  74.35%
 71.6s|   600 |     5 | 75099 | 121.3 |  1272M |  25 | 168 |5699 |5623 | 198 |  0 |  95 | 566 |-1.328310e+08 |-1.328764e+08 |   0.03%|  78.42%

SCIP Status        : problem is solved [optimal solution found]
Solving Time (sec) : 76.93
Solving Nodes      : 678
Primal Bound       : -1.32876442767067e+08 (242 solutions)
Dual Bound         : -1.32876442767067e+08
Gap                : 0.00 %
Solve Status: optimal
Solve Time: 90.16 seconds
